% File represents an instance of a Composite Structure problem to be solved by a CP framework
% Created on 2025-03-26 10:41:36.849
T = 58;
n = 25;
m = 40;
edges = [(2, 1),
(7, 6),
(12, 11),
(17, 16),
(22, 21),
(3, 2),
(8, 7),
(13, 12),
(18, 17),
(23, 22),
(4, 3),
(9, 8),
(14, 13),
(19, 18),
(23, 24),
(4, 5),
(10, 9),
(15, 14),
(20, 19),
(25, 24),
(1, 6),
(6, 11),
(11, 16),
(21, 16),
(2, 7),
(7, 12),
(17, 12),
(22, 17),
(3, 8),
(8, 13),
(18, 13),
(23, 18),
(4, 9),
(9, 14),
(14, 19),
(19, 24),
(10, 5),
(10, 15),
(15, 20),
(20, 25)];
counts = [|16, 12, 16, 6,
|16, 12, 16, 8,
|16, 12, 16, 10,
|16, 12, 16, 12,
|16, 12, 16, 8,
|16, 10, 16, 2,
|16, 10, 16, 8,
|16, 10, 16, 10,
|16, 12, 16, 10,
|16, 16, 16, 10,
|16, 8, 16, 2,
|16, 10, 16, 2,
|16, 10, 16, 4,
|16, 12, 16, 8,
|16, 14, 16, 10,
|16, 6, 16, 2,
|16, 12, 16, 2,
|16, 12, 16, 4,
|16, 12, 16, 6,
|16, 14, 16, 8,
|16, 8, 16, 2,
|16, 14, 16, 2,
|16, 14, 16, 4,
|16, 12, 16, 4,
|16, 14, 16, 6|];
